# Objective value = 2.9126231231629208e+02
x[0] 1
x[1] 0
x[2] 0
x[3] 1
x[4] 1
x[5] 1
x[6] 0
x[7] 1
x[8] 1
x[9] 0
x[10] 1
x[11] 1
x[12] 0
x[13] 0
x[14] 1
x[15] 1
x[16] 0
x[17] 1
x[18] 0
x[19] 0
x[20] 1
x[21] 0
x[22] 1
x[23] 0
x[24] 1
x[25] 0
x[26] 1
x[27] 1
x[28] 0
x[29] 0
x[30] 1
x[31] 1
x[32] 1
x[33] 0
x[34] 1
x[35] 1
x[36] 0
x[37] 0
x[38] 1
x[39] 0
x[40] 0
x[41] 0
x[42] 1
x[43] 0
x[44] 0
x[45] 0
x[46] 0
x[47] 1
x[48] 1
x[49] 0
x[50] 0
x[51] 1
x[52] 0
x[53] 0
x[54] 0
x[55] 1
x[56] 0
x[57] 1
x[58] 0
x[59] 1
x[60] 1
x[61] 1
x[62] 0
x[63] 1
x[64] 0
x[65] 1
x[66] 0
x[67] 0
x[68] 1
x[69] 1
x[70] 0
x[71] 0
x[72] 1
x[73] 0
x[74] 1
x[75] 1
x[76] 0
x[77] 1
x[78] 1
x[79] 1
x[80] 1
x[81] 0
x[82] 1
x[83] 0
x[84] 1
x[85] 1
x[86] 0
x[87] 0
x[88] 1
x[89] 0
x[90] 0
x[91] 1
x[92] 0
x[93] 0
x[94] 0
x[95] 1
x[96] 0
x[97] 1
x[98] 0
x[99] 0
x[100] 0
x[101] 1
x[102] 0
x[103] 1
x[104] 1
x[105] 1
x[106] 1
x[107] 1
x[108] 1
x[109] 0
x[110] 1
x[111] 1
x[112] 0
x[113] 1
x[114] 0
x[115] 0
x[116] 0
x[117] 0
x[118] 0
x[119] 0
x[120] 1
x[121] 0
x[122] 0
x[123] 0
x[124] 0
x[125] 0
x[126] 0
x[127] 1
x[128] 0
x[129] 1
x[130] 1
x[131] 1
x[132] 1
x[133] 1
x[134] 1
x[135] 1
x[136] 0
x[137] 1
x[138] 0
x[139] 0
x[140] 1
x[141] 1
x[142] 0
x[143] 0
x[144] 0
x[145] 1
x[146] 1
x[147] 1
x[148] 1
x[149] 1
x[150] 1
x[151] 1
x[152] 1
x[153] 1
x[154] 0
x[155] 0
x[156] 0
x[157] 1
x[158] 0
x[159] 0
x[160] 0
x[161] 0
x[162] 0
x[163] 1
x[164] 1
x[165] 0
x[166] 1
x[167] 1
x[168] 0
x[169] 1
x[170] 0
x[171] 0
x[172] 1
x[173] 1
x[174] 1
x[175] 0
x[176] 0
x[177] 1
x[178] 1
x[179] 0
x[180] 0
x[181] 1
x[182] 1
x[183] 1
x[184] 0
x[185] 1
x[186] 1
x[187] 1
x[188] 1
x[189] 0
x[190] 0
x[191] 0
x[192] 1
x[193] 0
x[194] 0
x[195] 1
x[196] 1
x[197] 0
x[198] 0
x[199] 0
x[200] 0
x[201] 0
x[202] 1
x[203] 1
x[204] 0
x[205] 1
x[206] 0
x[207] 0
x[208] 0
x[209] 1
x[210] 0
x[211] 1
x[212] 1
x[213] 1
x[214] 1
x[215] 0
x[216] 1
x[217] 1
x[218] 1
x[219] 1
x[220] 1
x[221] 1
x[222] 1
x[223] 0
x[224] 0
x[225] 0
x[226] 1
x[227] 0
x[228] 0
x[229] 0
x[230] 0
x[231] 0
x[232] 1
x[233] 1
x[234] 1
x[235] 0
x[236] 1
x[237] 0
x[238] 1
x[239] 1
x[240] 0
x[241] 1
x[242] 1
x[243] 0
x[244] 0
x[245] 0
x[246] 1
x[247] 0
x[248] 0
x[249] 1
x[250] 1
x[251] 1
x[252] 1
x[253] 1
x[254] 0
x[255] 1
x[256] 1
x[257] 1
x[258] 0
x[259] 0
x[260] 0
x[261] 1
x[262] 0
x[263] 0
x[264] 1
x[265] 0
x[266] 1
x[267] 0
x[268] 1
x[269] 1
x[270] 0
x[271] 0
x[272] 1
x[273] 0
x[274] 0
x[275] 1
x[276] 0
x[277] 0
x[278] 1
x[279] 0
x[280] 1
x[281] 1
x[282] 1
x[283] 0
x[284] 0
x[285] 0
x[286] 1
x[287] 0
x[288] 1
x[289] 1
x[290] 0
x[291] 1
x[292] 0
x[293] 1
x[294] 1
x[295] 0
x[296] 0
x[297] 0
x[298] 1
x[299] 0
x[300] 1
x[301] 1
x[302] 1
x[303] 1
x[304] 1
x[305] 1
x[306] 1
x[307] 1
x[308] 0
x[309] 0
x[310] 1
x[311] 1
x[312] 0
x[313] 1
x[314] 0
x[315] 1
x[316] 1
x[317] 0
x[318] 1
x[319] 1
x[320] 1
x[321] 0
x[322] 0
x[323] 1
x[324] 0
x[325] 1
x[326] 0
x[327] 0
x[328] 0
x[329] 1
x[330] 1
x[331] 1
x[332] 1
x[333] 1
x[334] 0
x[335] 0
x[336] 1
x[337] 1
x[338] 0
x[339] 0
x[340] 0
x[341] 1
x[342] 0
x[343] 0
x[344] 1
x[345] 0
x[346] 1
x[347] 0
x[348] 1
x[349] 0
x[350] 1
x[351] 1
x[352] 0
x[353] 1
x[354] 0
x[355] 0
x[356] 0
x[357] 0
x[358] 1
x[359] 1
x[360] 0
x[361] 0
x[362] 0
x[363] 0
x[364] 0
x[365] 1
x[366] 1
x[367] 1
x[368] 0
x[369] 1
x[370] 1
x[371] 0
x[372] 0
x[373] 1
x[374] 0
x[375] 1
x[376] 0
x[377] 1
x[378] 1
x[379] 0
x[380] 0
x[381] 0
x[382] 1
x[383] 0
x[384] 0
x[385] 0
x[386] 1
x[387] 0
x[388] 1
x[389] 0
x[390] 0
x[391] 0
x[392] 1
x[393] 1
x[394] 0
x[395] 1
x[396] 0
x[397] 1
x[398] 0
x[399] 0
x[400] 0
x[401] 0
x[402] 0
x[403] 0
x[404] 0
x[405] 1
x[406] 0
x[407] 1
x[408] 0
x[409] 0
x[410] 0
x[411] 1
x[412] 1
x[413] 0
x[414] 0
x[415] 0
x[416] 0
x[417] 0
x[418] 0
x[419] 0
x[420] 0
x[421] 0
x[422] 1
x[423] 1
x[424] 1
x[425] 0
x[426] 1
x[427] 0
x[428] 1
x[429] 1
x[430] 1
x[431] 1
x[432] 0
x[433] 0
x[434] 1
x[435] 1
x[436] 0
x[437] 1
x[438] 1
x[439] 0
x[440] 1
x[441] 1
x[442] 1
x[443] 1
x[444] 1
x[445] 0
x[446] 0
x[447] 1
x[448] 0
x[449] 1
x[450] 0
x[451] 0
x[452] 0
x[453] 1
x[454] 1
x[455] 0
x[456] 1
x[457] 1
x[458] 0
x[459] 0
x[460] 1
x[461] 0
x[462] 0
x[463] 1
x[464] 0
x[465] 1
x[466] 1
x[467] 0
x[468] 1
x[469] 0
x[470] 0
x[471] 1
x[472] 0
x[473] 1
x[474] 0
x[475] 1
x[476] 1
x[477] 0
x[478] 1
x[479] 0
x[480] 1
x[481] 1
x[482] 1
x[483] 0
x[484] 0
x[485] 0
x[486] 0
x[487] 0
x[488] 0
x[489] 1
x[490] 0
x[491] 1
x[492] 0
x[493] 0
x[494] 1
x[495] 1
x[496] 0
x[497] 1
x[498] 1
x[499] 0
x[500] 0
x[501] 1
x[502] 1
x[503] 1
x[504] 0
x[505] 1
x[506] 1
x[507] 0
x[508] 0
x[509] 0
x[510] 0
x[511] 0
x[512] 1
x[513] 1
x[514] 1
x[515] 1
x[516] 0
x[517] 1
x[518] 1
x[519] 0
x[520] 1
x[521] 1
x[522] 0
x[523] 0
x[524] 1
x[525] 0
x[526] 0
x[527] 0
x[528] 0
x[529] 1
x[530] 1
x[531] 0
x[532] 0
x[533] 1
x[534] 0
x[535] 0
x[536] 1
x[537] 0
x[538] 0
x[539] 0
x[540] 0
x[541] 1
x[542] 1
x[543] 0
x[544] 1
x[545] 0
x[546] 0
x[547] 1
x[548] 0
x[549] 0
x[550] 1
x[551] 0
x[552] 0
x[553] 0
x[554] 0
x[555] 0
x[556] 0
x[557] 0
x[558] 1
x[559] 1
x[560] 0
x[561] 1
x[562] 0
x[563] 0
x[564] 1
x[565] 0
x[566] 1
x[567] 0
x[568] 0
x[569] 1
x[570] 0
x[571] 0
x[572] 1
x[573] 0
x[574] 0
x[575] 1
x[576] 0
x[577] 1
x[578] 1
x[579] 0
x[580] 1
x[581] 1
x[582] 0
x[583] 0
x[584] 0
x[585] 1
x[586] 1
x[587] 1
x[588] 0
x[589] 0
x[590] 1
x[591] 0
x[592] 1
x[593] 0
x[594] 0
x[595] 1
x[596] 0
x[597] 1
x[598] 1
x[599] 1
x[600] 1
x[601] 0
x[602] 0
x[603] 1
x[604] 0
x[605] 0
x[606] 0
x[607] 1
x[608] 1
x[609] 0
x[610] 0
x[611] 1
x[612] 1
x[613] 1
x[614] 1
x[615] 0
x[616] 0
x[617] 1
x[618] 0
x[619] 0
x[620] 0
x[621] 1
x[622] 0
x[623] 1
x[624] 1
x[625] 0
x[626] 0
x[627] 0
x[628] 1
x[629] 0
x[630] 0
x[631] 1
x[632] 0
x[633] 0
x[634] 0
x[635] 1
x[636] 1
x[637] 0
x[638] 1
x[639] 1
x[640] 0
x[641] 1
x[642] 0
x[643] 1
x[644] 1
x[645] 0
x[646] 0
x[647] 0
x[648] 0
x[649] 1
x[650] 1
x[651] 0
x[652] 1
x[653] 1
x[654] 1
x[655] 0
x[656] 1
x[657] 0
x[658] 1
x[659] 0
x[660] 0
x[661] 1
x[662] 1
x[663] 1
x[664] 0
x[665] 1
x[666] 0
x[667] 0
x[668] 1
x[669] 1
x[670] 0
x[671] 0
x[672] 1
x[673] 0
x[674] 1
x[675] 0
x[676] 1
x[677] 0
x[678] 0
x[679] 1
x[680] 1
x[681] 0
x[682] 1
x[683] 0
x[684] 0
x[685] 0
x[686] 0
x[687] 1
x[688] 1
x[689] 1
x[690] 1
x[691] 1
x[692] 1
x[693] 0
x[694] 0
x[695] 0
x[696] 0
x[697] 1
x[698] 0
x[699] 1
x[700] 0
x[701] 0
x[702] 0
x[703] 0
x[704] 1
x[705] 1
x[706] 0
x[707] 1
x[708] 1
x[709] 0
x[710] 0
x[711] 0
x[712] 1
x[713] 0
x[714] 0
x[715] 0
x[716] 1
x[717] 1
x[718] 0
x[719] 0
x[720] 0
x[721] 0
x[722] 0
x[723] 0
x[724] 0
x[725] 1
x[726] 0
x[727] 0
x[728] 1
x[729] 0
x[730] 0
x[731] 0
x[732] 1
x[733] 0
x[734] 0
x[735] 0
x[736] 0
x[737] 1
x[738] 0
x[739] 0
x[740] 0
x[741] 0
x[742] 1
x[743] 1
x[744] 0
x[745] 0
x[746] 0
x[747] 1
x[748] 0
x[749] 1
x[750] 0
x[751] 0
x[752] 1
x[753] 1
x[754] 0
x[755] 1
x[756] 0
x[757] 1
x[758] 1
x[759] 0
x[760] 0
x[761] 1
x[762] 0
x[763] 1
x[764] 0
x[765] 0
x[766] 1
x[767] 0
x[768] 1
x[769] 0
x[770] 1
x[771] 0
x[772] 0
x[773] 0
x[774] 1
x[775] 0
x[776] 0
x[777] 1
x[778] 1
x[779] 0
x[780] 1
x[781] 1
x[782] 0
x[783] 0
x[784] 0
x[785] 0
x[786] 1
x[787] 1
x[788] 0
x[789] 1
x[790] 1
x[791] 1
x[792] 1
x[793] 0
x[794] 1
x[795] 1
x[796] 1
x[797] 1
x[798] 1
x[799] 0
x[800] 0
x[801] 1
x[802] 0
x[803] 0
x[804] 1
x[805] 1
x[806] 1
x[807] 1
x[808] 1
x[809] 0
x[810] 0
x[811] 1
x[812] 0
x[813] 1
x[814] 0
x[815] 0
x[816] 0
x[817] 1
x[818] 0
x[819] 1
x[820] 1
x[821] 0
x[822] 0
x[823] 0
x[824] 0
x[825] 0
x[826] 0
x[827] 0
x[828] 1
x[829] 1
x[830] 0
x[831] 0
x[832] 1
x[833] 0
x[834] 1
x[835] 0
x[836] 1
x[837] 0
x[838] 1
x[839] 1
x[840] 0
x[841] 1
x[842] 0
x[843] 0
x[844] 0
x[845] 0
x[846] 0
x[847] 1
x[848] 1
x[849] 1
x[850] 1
x[851] 0
x[852] 1
x[853] 1
x[854] 0
x[855] 1
x[856] 0
x[857] 0
x[858] 0
x[859] 1
x[860] 1
x[861] 0
x[862] 0
x[863] 0
x[864] 0
x[865] 1
x[866] 1
x[867] 1
x[868] 0
x[869] 0
x[870] 0
x[871] 1
x[872] 0
x[873] 1
x[874] 0
x[875] 0
x[876] 1
x[877] 0
x[878] 0
x[879] 1
x[880] 1
x[881] 0
x[882] 1
x[883] 0
x[884] 1
x[885] 1
x[886] 0
x[887] 1
x[888] 0
x[889] 1
x[890] 1
x[891] 1
x[892] 0
x[893] 0
x[894] 0
x[895] 0
x[896] 0
x[897] 1
x[898] 1
x[899] 0
x[900] 0
x[901] 1
x[902] 1
x[903] 1
x[904] 0
x[905] 1
x[906] 1
x[907] 1
x[908] 0
x[909] 1
x[910] 1
x[911] 0
x[912] 1
x[913] 0
x[914] 1
x[915] 1
x[916] 1
x[917] 1
x[918] 1
x[919] 0
x[920] 1
x[921] 1
x[922] 1
x[923] 1
x[924] 1
x[925] 1
x[926] 1
x[927] 1
x[928] 1
x[929] 0
x[930] 1
x[931] 0
x[932] 1
x[933] 1
x[934] 1
x[935] 0
x[936] 0
x[937] 1
x[938] 0
x[939] 0
x[940] 1
x[941] 1
x[942] 0
x[943] 0
x[944] 0
x[945] 0
x[946] 0
x[947] 1
x[948] 1
x[949] 1
x[950] 0
x[951] 0
x[952] 0
x[953] 0
x[954] 1
x[955] 1
x[956] 0
x[957] 1
x[958] 1
x[959] 1
x[960] 1
x[961] 0
x[962] 0
x[963] 1
x[964] 1
x[965] 1
x[966] 0
x[967] 1
x[968] 1
x[969] 0
x[970] 1
x[971] 0
x[972] 1
x[973] 0
x[974] 0
x[975] 0
x[976] 1
x[977] 1
x[978] 1
x[979] 1
x[980] 0
x[981] 1
x[982] 1
x[983] 0
x[984] 1
x[985] 1
x[986] 1
x[987] 0
x[988] 0
x[989] 0
x[990] 1
x[991] 1
x[992] 0
x[993] 1
x[994] 1
x[995] 0
x[996] 0
x[997] 0
x[998] 0
x[999] 1
